computational_data/solutions/Reg3_n30_s9.sol
Optimal - objective value 14.00000000
      3 r_3                         1                       1
      4 r_4                         1                       1
      6 r_6                         1                       1
      9 r_9                         1                       1
     18 r_18                        1                       1
     22 r_22                        1                       1
     23 r_23                        1                       1
     32 b_2                         1                       1
     38 b_8                         1                       1
     42 b_12                        1                       1
     43 b_13                        1                       1
     49 b_19                        1                       1
     56 b_26                        1                       1
     59 b_29                        1                       1
