computational_data/logs/Reg3_n30_s9.log
Welcome to the CBC MILP Solver 
Version: 2.10.12 
Build Date: Aug 20 2024 

command line - /opt/homebrew/bin/cbc computational_data/lp/Reg3_n30_s9.lp seconds 10.0 solve solu computational_data/solutions/Reg3_n30_s9.sol (default strategy 1)
seconds was changed from 1e+100 to 10
Continuous objective value is 12 - 0.00 seconds
Cgl0003I 0 fixed, 0 tightened bounds, 6 strengthened rows, 0 substitutions
Cgl0003I 0 fixed, 0 tightened bounds, 6 strengthened rows, 0 substitutions
Cgl0003I 0 fixed, 0 tightened bounds, 6 strengthened rows, 0 substitutions
Cgl0004I processed model has 170 rows, 60 columns (60 integer (60 of which binary)) and 582 elements
Cutoff increment increased from 1e-05 to 0.9999
Cbc0038I Initial state - 58 integers unsatisfied sum - 12
Cbc0038I Pass   1: suminf.   12.00641 (58) obj. 12.0064 iterations 3
Cbc0038I Pass   2: suminf.    8.16667 (27) obj. 15.25 iterations 64
Cbc0038I Pass   3: suminf.    0.00000 (0) obj. 18 iterations 29
Cbc0038I Solution found of 18
Cbc0038I Before mini branch and bound, 1 integers at bound fixed and 0 continuous
Cbc0038I Full problem 170 rows 60 columns, reduced to 166 rows 59 columns - 6 fixed gives 82, 34 - ok now
Cbc0038I Full problem 170 rows 60 columns, reduced to 74 rows 32 columns
Cbc0038I Mini branch and bound improved solution from 18 to 15 (0.01 seconds)
Cbc0038I Round again with cutoff of 13.8001
Cbc0038I Pass   4: suminf.   12.00641 (58) obj. 12.0064 iterations 0
Cbc0038I Pass   5: suminf.    5.64971 (27) obj. 13.8001 iterations 66
Cbc0038I Pass   6: suminf.    5.19991 (17) obj. 13.8001 iterations 22
Cbc0038I Pass   7: suminf.    4.79979 (17) obj. 13.8001 iterations 6
Cbc0038I Pass   8: suminf.    4.71977 (17) obj. 13.8001 iterations 15
Cbc0038I Pass   9: suminf.    6.80009 (17) obj. 13.8001 iterations 34
Cbc0038I Pass  10: suminf.    4.09906 (17) obj. 13.8001 iterations 39
Cbc0038I Pass  11: suminf.    3.01563 (39) obj. 13.8001 iterations 46
Cbc0038I Pass  12: suminf.    8.00015 (30) obj. 13.8001 iterations 46
Cbc0038I Pass  13: suminf.    3.50000 (7) obj. 13.5 iterations 33
Cbc0038I Pass  14: suminf.    3.50000 (7) obj. 13.5 iterations 13
Cbc0038I Pass  15: suminf.    2.79979 (7) obj. 13.8001 iterations 13
Cbc0038I Pass  16: suminf.    2.79979 (7) obj. 13.8001 iterations 11
Cbc0038I Pass  17: suminf.    3.39997 (10) obj. 13.8001 iterations 29
Cbc0038I Pass  18: suminf.    1.39937 (7) obj. 13.8001 iterations 56
Cbc0038I Pass  19: suminf.    1.13282 (11) obj. 13.8001 iterations 12
Cbc0038I Pass  20: suminf.    4.79979 (13) obj. 13.8001 iterations 43
Cbc0038I Pass  21: suminf.    3.99985 (15) obj. 13.8001 iterations 18
Cbc0038I Pass  22: suminf.    5.19991 (14) obj. 13.8001 iterations 42
Cbc0038I Pass  23: suminf.    3.59973 (14) obj. 13.8001 iterations 19
Cbc0038I Pass  24: suminf.    3.15966 (16) obj. 13.8001 iterations 26
Cbc0038I Pass  25: suminf.    2.59883 (12) obj. 13.8001 iterations 37
Cbc0038I Pass  26: suminf.    1.26610 (15) obj. 13.8001 iterations 27
Cbc0038I Pass  27: suminf.    6.19991 (14) obj. 13.8001 iterations 51
Cbc0038I Pass  28: suminf.    2.09906 (17) obj. 13.8001 iterations 24
Cbc0038I Pass  29: suminf.    1.39937 (18) obj. 13.8001 iterations 50
Cbc0038I Pass  30: suminf.    5.50000 (11) obj. 13.5 iterations 45
Cbc0038I Pass  31: suminf.    4.33333 (13) obj. 13.3333 iterations 17
Cbc0038I Pass  32: suminf.    2.19901 (9) obj. 13.8001 iterations 21
Cbc0038I Pass  33: suminf.    1.26610 (16) obj. 13.8001 iterations 34
Cbc0038I No solution found this major pass
Cbc0038I Before mini branch and bound, 0 integers at bound fixed and 0 continuous
Cbc0038I Full problem 170 rows 60 columns, reduced to 170 rows 60 columns - 10 fixed gives 38, 18 - ok now
Cbc0038I Mini branch and bound did not improve solution (0.03 seconds)
Cbc0038I After 0.03 seconds - Feasibility pump exiting with objective of 15 - took 0.03 seconds
Cbc0012I Integer solution of 15 found by feasibility pump after 0 iterations and 0 nodes (0.03 seconds)
Cbc0031I 7 added rows had average density of 48.142857
Cbc0013I At root node, 7 cuts changed objective from 12 to 13 in 100 passes
Cbc0014I Cut generator 0 (Probing) - 0 row cuts average 0.0 elements, 0 column cuts (0 active)  in 0.008 seconds - new frequency is -100
Cbc0014I Cut generator 1 (Gomory) - 2182 row cuts average 59.7 elements, 0 column cuts (0 active)  in 0.032 seconds - new frequency is 1
Cbc0014I Cut generator 2 (Knapsack) - 0 row cuts average 0.0 elements, 0 column cuts (0 active)  in 0.003 seconds - new frequency is -100
Cbc0014I Cut generator 3 (Clique) - 0 row cuts average 0.0 elements, 0 column cuts (0 active)  in 0.004 seconds - new frequency is -100
Cbc0014I Cut generator 4 (MixedIntegerRounding2) - 186 row cuts average 60.0 elements, 0 column cuts (0 active)  in 0.020 seconds - new frequency is -100
Cbc0014I Cut generator 5 (FlowCover) - 0 row cuts average 0.0 elements, 0 column cuts (0 active)  in 0.001 seconds - new frequency is -100
Cbc0010I After 0 nodes, 1 on tree, 15 best solution, best possible 13 (0.20 seconds)
Cbc0012I Integer solution of 14 found by DiveCoefficient after 4676 iterations and 3 nodes (0.22 seconds)
Cbc0001I Search completed - best objective 14, took 6313 iterations and 32 nodes (0.31 seconds)
Cbc0032I Strong branching done 568 times (11451 iterations), fathomed 9 nodes and fixed 4 variables
Cbc0035I Maximum depth 9, 0 variables fixed on reduced cost
Cuts at root node changed objective from 12 to 13
Probing was tried 100 times and created 0 cuts of which 0 were active after adding rounds of cuts (0.008 seconds)
Gomory was tried 124 times and created 2186 cuts of which 0 were active after adding rounds of cuts (0.034 seconds)
Knapsack was tried 100 times and created 0 cuts of which 0 were active after adding rounds of cuts (0.003 seconds)
Clique was tried 100 times and created 0 cuts of which 0 were active after adding rounds of cuts (0.004 seconds)
MixedIntegerRounding2 was tried 100 times and created 186 cuts of which 0 were active after adding rounds of cuts (0.020 seconds)
FlowCover was tried 100 times and created 0 cuts of which 0 were active after adding rounds of cuts (0.001 seconds)
TwoMirCuts was tried 1 times and created 0 cuts of which 0 were active after adding rounds of cuts (0.001 seconds)
ZeroHalf was tried 1 times and created 0 cuts of which 0 were active after adding rounds of cuts (0.000 seconds)

Result - Optimal solution found

Objective value:                14.00000000
Enumerated nodes:               32
Total iterations:               6313
Time (CPU seconds):             0.31
Time (Wallclock seconds):       0.32

Total time (CPU seconds):       0.31   (Wallclock seconds):       0.32

